generated by phonopy
   1.0
     3.7403137504547965    0.0000000000000000    0.0000000000000000
    -1.8701568752273983    3.2392067260181032    0.0000000000000000
     0.0000000000000000    0.0000000000000000    5.2659797668000010
Ni Te
   1    2
Direct
  0.0000000000000000  0.0000000000000000  0.4999999999999999
  0.6666666666666666  0.3333333333333333  0.7665059859999999
  0.3333333333333334  0.6666666666666667  0.2334940139999999
