Sr  V  O 
 1.0000000000000000
     3.9008910000000001    0.0000000000000000    0.0000000000000000
     0.0000000000000000    3.9008910000000001    0.0000000000000000
     0.0000000000000000    0.0000000000000000    3.9008910000000001
  Sr   V   O
   1   1   3
Direct
  0.5000000000000000  0.5000000000000000  0.5000000000000000
  0.0000000000000000  0.0000000000000000  0.0000000000000000
  0.0000000000000000  0.5000000000000000  0.0000000000000000
  0.0000000000000000  0.0000000000000000  0.5000000000000000
  0.5000000000000000  0.0000000000000000  0.0000000000000000
