Cu                                      
   1.00000000000000     
     0.0000000000000000    1.8159749723196192    1.8159749723196192
     1.8159749723196192    0.0000000000000000    1.8159749723196192
     1.8159749723196192    1.8159749723196192    0.0000000000000000
   Cu
     1
Direct
  0.0000000000000000  0.0000000000000000  0.0000000000000000
 
  0.00000000E+00  0.00000000E+00  0.00000000E+00
